c Source: TUDataset AIDS, graph #1974
c Original: n=12, m=16
c Augmented: +8 edges, n=15 -> m=24, circuit_rank=10
c Augmented to satisfy Eulerian condition (no parallel edges)
p sp 15
e 3 9
e 10 12
e 9 10
e 5 6
e 2 3
e 1 2
e 2 6
e 1 5
e 5 8
e 10 11
e 3 4
e 7 8
e 3 7
e 6 7
e 4 8
e 1 4
e 1 13
e 2 13
e 4 14
e 8 14
e 5 15
e 6 15
e 7 10
e 11 12
